NAME : 10_3_3_3_(43).dat
COMMENT : Henke, Speranza, Wäscher, 2015
TYPE : MCVRP
DIMENSION : 11
EDGE_WEIGHT_TYPE : DISTANCE_MATRIX
CAPACITY : 1000
VEHICLES : 2
PRODUCT TYPES : 3
COMPARTMENTS : 3
NODE_COORD_SECTION
1 50 50
2 7.39 20.71
3 71.84 78.46
4 80.98 52.26
5 0.28 73.21
6 38.16 73.18
7 14.15 50.15
8 83.07 49.36
9 61.91 51.07
10 49.68 13.71
11 97.78 7.64
DEMAND_SECTION
1 0 0 0
2 52 15 7
3 88 61 54
4 119 56 3
5 24 1 43
6 93 21 33
7 12 36 43
8 59 68 30
9 16 28 57
10 115 104 0
11 147 45 19
DEPOT_SECTION
1
EOF